NAME : E151B14r.2728111.tour
COMMENT : Length = 2728111
COMMENT : Found by LKH [Keld Helsgaun] Tue May  8 13:50:38 2018
TYPE : TOUR
DIMENSION : 164
TOUR_SECTION
1
7
9
10
3
2
11
6
4
5
144
155
52
57
36
46
44
39
43
47
33
68
59
65
164
127
133
139
135
100
134
132
138
12
123
161
149
81
78
79
80
77
62
150
163
53
54
50
38
35
49
48
37
32
34
41
40
42
29
31
45
30
61
51
152
142
17
125
126
129
128
131
16
120
28
156
22
136
121
137
106
98
105
92
97
103
107
104
108
122
153
56
58
63
64
55
60
69
67
66
154
148
26
151
145
146
70
72
73
71
117
119
113
110
114
157
74
76
75
112
115
118
111
109
116
141
162
13
24
101
91
93
130
18
20
158
124
27
21
19
25
15
23
140
143
147
160
94
90
102
89
95
99
96
87
85
88
83
82
86
84
159
14
8
-1
EOF
